Tried aggregator 2 times.
MIP Presolve eliminated 8 rows and 8 columns.
Aggregator did 4 substitutions.
Reduced MIP has 105097 rows, 140132 columns, and 350324 nonzeros.
Reduced MIP has 35032 binaries, 0 generals, 0 SOSs, and 0 indicators.
Presolve time = 0.32 sec. (224.68 ticks)
Found incumbent of value 3163.763140 after 0.83 sec. (683.70 ticks)
Probing time = 0.14 sec. (6.64 ticks)
Tried aggregator 1 time.
Reduced MIP has 105097 rows, 140132 columns, and 350324 nonzeros.
Reduced MIP has 35032 binaries, 0 generals, 0 SOSs, and 0 indicators.
Presolve time = 0.38 sec. (189.91 ticks)
Probing time = 0.05 sec. (6.24 ticks)
MIP emphasis: balance optimality and feasibility.
MIP search method: dynamic search.
Parallel mode: deterministic, using up to 20 threads.
Root relaxation solution time = 1.65 sec. (1222.36 ticks)

        Nodes                                         Cuts/
   Node  Left     Objective  IInf  Best Integer    Best Bound    ItCnt     Gap

*     0+    0                         3163.7631   1.51939e+07              --- 
*     0+    0                       123621.2447   1.51939e+07              --- 
      0     0  5023376.0878   866   123621.2447  5023376.0878    13861     --- 
*     0+    0                      4888397.0533  5023376.0878             2.76%
      0     0  5003183.2411   664  4888397.0533    Cuts: 3072    15055    2.35%
*     0+    0                      4909831.7008  5003183.2411             1.90%
      0     0  5001314.7112   516  4909831.7008    Cuts: 2092    15875    1.86%
      0     0  4998757.8059   538  4909831.7008    Cuts: 1372    16535    1.81%
*     0+    0                      4911329.6656  4998757.8059             1.78%
      0     0  4986317.0444   414  4911329.6656    Cuts: 1411    17245    1.53%
      0     0  4983113.4327   307  4911329.6656     Cuts: 566    17521    1.46%
      0     0  4982373.7486   259  4911329.6656     Cuts: 241    17650    1.45%
      0     0  4982280.8542   249  4911329.6656      Cuts: 55    17682    1.44%
      0     0  4982121.0886   229  4911329.6656      Cuts: 61    17708    1.44%
      0     0  4982023.7440   231  4911329.6656      Cuts: 17    17718    1.44%
      0     0  4981945.7133   226  4911329.6656    MIRcuts: 8    17726    1.44%
*     0+    0                      4959708.4202  4981945.7133             0.45%
*     0+    0                      4960736.3853  4981945.7133             0.43%
*     0+    0                      4960863.8111  4981945.7133             0.42%
      0     2  4981945.7133   226  4960863.8111  4981945.7133    17726    0.42%
Elapsed time = 13.40 sec. (9545.61 ticks, tree = 0.01 MB, solutions = 8)
      4     6  4981933.6452   226  4960863.8111  4981944.9982    17740    0.42%
      5     7  4981666.0525   225  4960863.8111  4981944.9982    17742    0.42%
      6     8  4981930.3430   226  4960863.8111  4981944.9982    17744    0.42%
      7     9  4981665.9299   228  4960863.8111  4981944.9982    17747    0.42%
      8    10  4981657.2849   225  4960863.8111  4981944.9982    17751    0.42%
      9    11  4981657.6254   225  4960863.8111  4981944.9982    17756    0.42%
     10    12  4981943.2572   230  4960863.8111  4981944.4632    17759    0.42%
     11    13  4981901.2394   226  4960863.8111  4981944.4632    17763    0.42%
     12    14  4981653.9843   225  4960863.8111  4981944.4632    17764    0.42%
     72    74  4981367.9306   224  4960863.8111  4981944.4632    17908    0.42%
Elapsed time = 15.05 sec. (10507.71 ticks, tree = 0.01 MB, solutions = 8)
    426   428  4981249.0414   218  4960863.8111  4981944.4632    18790    0.42%
    446   448  4981245.5193   218  4960863.8111  4981944.4632    18845    0.42%
    452   454  4981533.8856   222  4960863.8111  4981944.4632    18860    0.42%
    466   468  4981247.2907   219  4960863.8111  4981944.4632    18909    0.42%
    472   474  4981781.5135   224  4960863.8111  4981944.4632    18931    0.42%
    473   475  4981475.7885   219  4960863.8111  4981944.4632    18933    0.42%
    474   476  4981274.4348   218  4960863.8111  4981944.4632    18935    0.42%
    475   477  4981239.1304   218  4960863.8111  4981944.4632    18938    0.42%
    476   478  4981491.0229   221  4960863.8111  4981944.4632    18941    0.42%
    477   479  4981244.8745   218  4960863.8111  4981944.4632    18944    0.42%
Elapsed time = 18.68 sec. (11488.44 ticks, tree = 0.01 MB, solutions = 8)
    708   710  4981235.1849   218  4960863.8111  4981944.4632    19589    0.42%
    828   830  4981771.7524   223  4960863.8111  4981944.4632    19824    0.42%
    829   831  4981132.8380   218  4960863.8111  4981944.4632    19826    0.42%
    831   833  4981213.6742   216  4960863.8111  4981944.4632    19831    0.42%
    832   834  4981457.7755   219  4960863.8111  4981944.4632    19832    0.42%
    833   835  4981219.4184   216  4960863.8111  4981944.4632    19833    0.42%
    834   836  4981200.3877   216  4960863.8111  4981944.4632    19834    0.42%
    835   837  4981210.6507   216  4960863.8111  4981944.4632    19835    0.42%
    836   838  4981209.0640   217  4960863.8111  4981944.4632    19839    0.42%
    837   839  4981200.6960   217  4960863.8111  4981944.4632    19840    0.42%
Elapsed time = 21.03 sec. (12448.52 ticks, tree = 0.01 MB, solutions = 8)
    937   939  4981253.2231   215  4960863.8111  4981944.4632    20036    0.42%
    952   954  4981160.5348   219  4960863.8111  4981944.4632    20059    0.42%
    956   958  4981129.1502   218  4960863.8111  4981944.4632    20064    0.42%
    957   959  4981254.4788   215  4960863.8111  4981944.4632    20065    0.42%
    971   973  4980951.7305   216  4960863.8111  4981944.4632    20086    0.42%
    972   974  4981160.1618   219  4960863.8111  4981944.4632    20087    0.42%
*   974+  974                      4961249.7845  4981944.4632             0.42%
    974   976  4981155.6493   218  4961249.7845  4981944.4632    20090    0.42%
    976   978  4981127.7755   218  4961249.7845  4981944.4632    20095    0.42%
    977   979  4981130.8212   215  4961249.7845  4981944.4632    20098    0.42%
    991   993  4980950.3557   216  4961249.7845  4981944.4632    20121    0.42%
Elapsed time = 23.23 sec. (13478.60 ticks, tree = 5.80 MB, solutions = 8)
   1318  1320  4980943.0868   216  4961249.7845  4981944.4632    20772    0.42%
   1320  1322  4981146.1035   218  4961249.7845  4981944.4632    20774    0.42%
   1325  1327  4981181.1886   216  4961249.7845  4981944.4632    20784    0.42%
   1326  1328  4981383.3566   221  4961249.7845  4981944.4632    20788    0.42%
   1327  1329  4981186.9328   216  4961249.7845  4981944.4632    20790    0.42%
   1338  1340  4980938.1098   216  4961249.7845  4981944.4632    20819    0.42%
   1339  1341  4981151.5181   219  4961249.7845  4981944.4632    20821    0.42%
   1340  1342  4981148.3924   218  4961249.7845  4981944.4632    20823    0.42%
   1345  1347  4981139.2386   218  4961249.7845  4981944.4632    20838    0.42%
   1346  1348  4981417.8540   219  4961249.7845  4981944.4632    20839    0.42%
Elapsed time = 26.27 sec. (14506.26 ticks, tree = 13.68 MB, solutions = 9)
*  1381+ 1381                      4961274.0755  4981944.4632             0.42%
   1633  1635  4980917.4361   216  4961274.0755  4981944.4632    21606    0.42%
   1653  1655  4980657.6174   215  4961274.0755  4981944.4632    21675    0.42%
   1673  1675  4980913.2334   217  4961274.0755  4981944.4632    21713    0.42%
   1674  1676  4980866.0488   218  4961274.0755  4981944.4632    21718    0.42%
   1693  1695  4980656.0113   215  4961274.0755  4981944.4632    21774    0.42%
   1694  1696  4981121.6648   220  4961274.0755  4981944.4632    21778    0.42%
   1713  1715  4980655.8972   215  4961274.0755  4981944.4632    21824    0.42%
   1714  1716  4980864.4426   218  4961274.0755  4981944.4632    21830    0.42%
   1722  1724  4981059.9436   217  4961274.0755  4981944.4632    21849    0.42%
   1733  1735  4980549.0357   215  4961274.0755  4981944.4632    21873    0.42%
Elapsed time = 29.84 sec. (15678.61 ticks, tree = 24.84 MB, solutions = 10)
   2239  2241  4980403.7434   211  4961274.0755  4981944.4632    23447    0.42%
   2259  2261  4980651.2892   213  4961274.0755  4981944.4632    23507    0.42%
   2263  2265  4979168.6619   206  4961274.0755  4981944.4632    23523    0.42%
   2275  2277  4979448.9412   210  4961274.0755  4981944.4632    23568    0.42%
   2279  2281  4980424.4265   211  4961274.0755  4981944.4632    23579    0.42%
   2283  2285  4979510.0732   207  4961274.0755  4981944.4632    23590    0.42%
   2284  2286  4979919.3636   210  4961274.0755  4981944.4632    23592    0.42%
   2285  2287  4979888.7860   208  4961274.0755  4981944.4632    23597    0.42%
   2295  2297  4979790.3525   211  4961274.0755  4981944.4632    23622    0.42%
   2299  2301  4980421.8379   211  4961274.0755  4981944.4632    23637    0.42%
Elapsed time = 34.05 sec. (17080.97 ticks, tree = 39.86 MB, solutions = 10)
   3000  3002  4979253.0819   207  4961274.0755  4981944.4632    25637    0.42%
   3001  3003  4978928.5829   204  4961274.0755  4981944.4632    25638    0.42%
   3002  3004  4979247.1007   206  4961274.0755  4981944.4632    25643    0.42%
   3003  3005  4978473.1934   204  4961274.0755  4981944.4632    25645    0.42%
   3004  3006  4978612.0552   205  4961274.0755  4981944.4632    25648    0.42%
   3005  3007  4978302.3444   202  4961274.0755  4981944.4632    25653    0.42%
   3006  3008  4978135.0293   201  4961274.0755  4981944.4632    25655    0.42%
   3007  3009  4978534.1785   203  4961274.0755  4981944.4632    25660    0.42%
   3008  3010  4978475.6091   202  4961274.0755  4981944.4632    25664    0.42%
   3009  3011  4977047.4309   198  4961274.0755  4981944.4632    25665    0.42%
Elapsed time = 37.10 sec. (18049.11 ticks, tree = 63.43 MB, solutions = 10)
   3300  3302  4978889.3647   206  4961274.0755  4981944.4632    26297    0.42%
   3302  3304  4979084.8344   206  4961274.0755  4981944.4632    26300    0.42%
   3316  3318  4977268.9433   200  4961274.0755  4981944.4632    26349    0.42%
   3320  3322  4979095.2064   207  4961274.0755  4981944.4632    26358    0.42%
   3322  3324  4978874.6411   205  4961274.0755  4981944.4632    26365    0.42%
   3334  3336  4978843.0478   206  4961274.0755  4981944.4632    26390    0.42%
   3336  3338  4977264.5918   200  4961274.0755  4981944.4632    26393    0.42%
   3340  3342  4979051.1334   209  4961274.0755  4981944.4632    26399    0.42%
   3342  3344  4979073.4989   206  4961274.0755  4981944.4632    26404    0.42%
   3343  3345  4977718.3987   200  4961274.0755  4981944.4632    26405    0.42%
Elapsed time = 42.07 sec. (19282.72 ticks, tree = 63.43 MB, solutions = 10)
   4004  4006  4978981.3749   207  4961274.0755  4981944.4632    28158    0.42%
   4006  4008  4978438.0464   204  4961274.0755  4981944.4632    28165    0.42%
   4007  4009  4977145.1025   198  4961274.0755  4981944.4632    28170    0.42%
   4009  4011  4977171.7180   200  4961274.0755  4981944.4632    28174    0.42%
   4010  4012  4976373.4795   191  4961274.0755  4981944.4632    28175    0.42%
   4012  4014  4976933.1111   193  4961274.0755  4981944.4632    28182    0.42%
   4017  4019  4976545.4502   190  4961274.0755  4981944.4632    28201    0.42%
   4019  4021  4976687.2337   191  4961274.0755  4981944.4632    28209    0.42%
   4020  4022  4977252.3471   200  4961274.0755  4981944.4632    28212    0.42%
*  4143+ 4143                      4961376.6780  4981944.4632             0.41%
   5167  5169  4977278.5319   189  4961376.6780  4981944.4632    31081    0.41%
Elapsed time = 52.25 sec. (23116.72 ticks, tree = 126.45 MB, solutions = 11)
*  5227+ 5227                      4961647.0363  4981944.4632             0.41%
*  5227+ 5227                      4961911.9266  4981944.4632             0.40%
*  5227+ 5227                      4962123.4676  4981944.4632             0.40%
*  5227+ 5227                      4962167.2207  4981944.4632             0.40%
*  5227+ 5227                      4962275.7203  4981944.4632             0.40%
   5227  5229  4976895.6114   188  4962275.7203  4981944.4632    31284    0.40%
   5228  5230  4976350.8551   159  4962275.7203  4981944.4632    31286    0.40%
   5229  5231  4976657.6469   180  4962275.7203  4981944.4632    31289    0.40%
   5230  5232  4975040.5048   171  4962275.7203  4981944.4632    31294    0.40%
   5231  5233  4975986.8185   175  4962275.7203  4981944.4632    31297    0.40%
   5232  5234  4975621.5946   162  4962275.7203  4981944.4632    31300    0.40%
   5233  5235  4974761.1392   154  4962275.7203  4981944.4632    31302    0.40%
   5234  5236  4975161.6823   156  4962275.7203  4981944.4632    31304    0.40%
   5235  5237  4975385.0766   177  4962275.7203  4981944.4632    31309    0.40%
   5236  5238  4973587.8802   155  4962275.7203  4981944.4632    31311    0.40%
Elapsed time = 76.36 sec. (35366.25 ticks, tree = 242.75 MB, solutions = 11)
*  5247+ 3498                      4963536.7325  4964857.2759             0.03%
*  5247+ 2332                      4964474.4169  4964597.3463             0.00%

Implied bound cuts applied:  161
Flow cuts applied:  78
Mixed integer rounding cuts applied:  5476
Lift and project cuts applied:  63
Gomory fractional cuts applied:  263

Root node processing (before b&c):
  Real time             =   12.80 sec. (9485.55 ticks)
Parallel b&c, 20 threads:
  Real time             =   93.77 sec. (57952.32 ticks)
  Sync time (average)   =    8.55 sec.
  Wait time (average)   =    9.51 sec.
                          ------------
Total (root+branch&cut) =  106.57 sec. (67437.87 ticks)
MKLROOT=/global/software/sl-6.x86_64/modules/langs/intel/2015.6.233/mkl
SLURM_NODELIST=n0011.savio1
SLURM_CHECKPOINT_IMAGE_DIR=/var/slurm/checkpoint
MANPATH=/global/software/sl-6.x86_64/modules/langs/julia/0.5.0/share/man:/global/software/sl-6.x86_64/modules/langs/intel/2015.6.233/man/en_US:/global/software/sl-6.x86_64/modules/langs/gcc/4.8.5/share/man:/usr/share/man
SLURM_JOB_NAME=aggregator
HOSTNAME=n0011.savio1
SLURM_NTASKS_PER_NODE=1
SLURM_TOPOLOGY_ADDR=ib-savio.ib-savio-00.n0011.savio1
SLURMD_NODENAME=n0011.savio1
SLURM_PRIO_PROCESS=0
SLURM_NODE_ALIASES=(null)
TERM=xterm-256color
SHELL=/bin/bash
HISTSIZE=1000
SLURM_JOB_QOS=savio_normal
SSH_CLIENT=10.142.114.66 53400 22
SLURM_TOPOLOGY_ADDR_PATTERN=switch.switch.node
TMPDIR=/tmp
LIBRARY_PATH=/global/software/sl-6.x86_64/modules/langs/julia/0.5.0/lib/julia:/global/software/sl-6.x86_64/modules/langs/intel/2015.6.233/mkl/lib/intel64:/global/software/sl-6.x86_64/modules/langs/gcc/4.8.5/lib64:/global/software/sl-6.x86_64/modules/langs/gcc/4.8.5/lib
GCC_DIR=/global/software/sl-6.x86_64/modules/langs/gcc/4.8.5
FPATH=/global/software/sl-6.x86_64/modules/langs/intel/2015.6.233/mkl/include/fftw:/global/software/sl-6.x86_64/modules/langs/intel/2015.6.233/mkl/include
SSH_TTY=/dev/pts/145
USER=jdlara
SLURM_NNODES=1
LD_LIBRARY_PATH=/global/software/sl-6.x86_64/modules/langs/julia/0.5.0/lib/julia:/global/software/sl-6.x86_64/modules/langs/intel/2015.6.233/mkl/lib/intel64:/global/software/sl-6.x86_64/modules/langs/gcc/4.8.5/lib64:/global/software/sl-6.x86_64/modules/langs/gcc/4.8.5/lib:/global/home/users/jdlara/gurobi652/linux64/lib
LS_COLORS=rs=0:di=38;5;27:ln=38;5;51:mh=44;38;5;15:pi=40;38;5;11:so=38;5;13:do=38;5;5:bd=48;5;232;38;5;11:cd=48;5;232;38;5;3:or=48;5;232;38;5;9:mi=05;48;5;232;38;5;15:su=48;5;196;38;5;15:sg=48;5;11;38;5;16:ca=48;5;196;38;5;226:tw=48;5;10;38;5;16:ow=48;5;10;38;5;21:st=48;5;21;38;5;15:ex=38;5;34:*.tar=38;5;9:*.tgz=38;5;9:*.arj=38;5;9:*.taz=38;5;9:*.lzh=38;5;9:*.lzma=38;5;9:*.tlz=38;5;9:*.txz=38;5;9:*.zip=38;5;9:*.z=38;5;9:*.Z=38;5;9:*.dz=38;5;9:*.gz=38;5;9:*.lz=38;5;9:*.xz=38;5;9:*.bz2=38;5;9:*.tbz=38;5;9:*.tbz2=38;5;9:*.bz=38;5;9:*.tz=38;5;9:*.deb=38;5;9:*.rpm=38;5;9:*.jar=38;5;9:*.rar=38;5;9:*.ace=38;5;9:*.zoo=38;5;9:*.cpio=38;5;9:*.7z=38;5;9:*.rz=38;5;9:*.jpg=38;5;13:*.jpeg=38;5;13:*.gif=38;5;13:*.bmp=38;5;13:*.pbm=38;5;13:*.pgm=38;5;13:*.ppm=38;5;13:*.tga=38;5;13:*.xbm=38;5;13:*.xpm=38;5;13:*.tif=38;5;13:*.tiff=38;5;13:*.png=38;5;13:*.svg=38;5;13:*.svgz=38;5;13:*.mng=38;5;13:*.pcx=38;5;13:*.mov=38;5;13:*.mpg=38;5;13:*.mpeg=38;5;13:*.m2v=38;5;13:*.mkv=38;5;13:*.ogm=38;5;13:*.mp4=38;5;13:*.m4v=38;5;13:*.mp4v=38;5;13:*.vob=38;5;13:*.qt=38;5;13:*.nuv=38;5;13:*.wmv=38;5;13:*.asf=38;5;13:*.rm=38;5;13:*.rmvb=38;5;13:*.flc=38;5;13:*.avi=38;5;13:*.fli=38;5;13:*.flv=38;5;13:*.gl=38;5;13:*.dl=38;5;13:*.xcf=38;5;13:*.xwd=38;5;13:*.yuv=38;5;13:*.cgm=38;5;13:*.emf=38;5;13:*.axv=38;5;13:*.anx=38;5;13:*.ogv=38;5;13:*.ogx=38;5;13:*.aac=38;5;45:*.au=38;5;45:*.flac=38;5;45:*.mid=38;5;45:*.midi=38;5;45:*.mka=38;5;45:*.mp3=38;5;45:*.mpc=38;5;45:*.ogg=38;5;45:*.ra=38;5;45:*.wav=38;5;45:*.axa=38;5;45:*.oga=38;5;45:*.spx=38;5;45:*.xspf=38;5;45:
CPATH=/global/software/sl-6.x86_64/modules/langs/julia/0.5.0/include:/global/software/sl-6.x86_64/modules/langs/intel/2015.6.233/mkl/include/fftw:/global/software/sl-6.x86_64/modules/langs/intel/2015.6.233/mkl/include:/global/software/sl-6.x86_64/modules/langs/gcc/4.8.5/include
SLURM_JOBID=1269734
SLURM_NTASKS=1
NLSPATH=/global/software/sl-6.x86_64/modules/langs/intel/2015.6.233/mkl/lib/intel64/locale/en_US
MAIL=/var/spool/mail/jdlara
PATH=/global/software/sl-6.x86_64/modules/langs/julia/0.5.0/bin:/global/software/sl-6.x86_64/modules/langs/gcc/4.8.5/bin:/usr/local/bin:/bin:/usr/bin:/usr/local/sbin:/usr/sbin:/sbin:/global/home/groups/allhands/bin:/global/home/users/jdlara/gurobi652/linux64/bin:/global/home/users/jdlara/bin:/global/home/users/jdlara/gurobi652/linux64/bin
SLURM_TASKS_PER_NODE=20
SLURM_CPUS_PER_TASK=1
SLURM_JOB_ID=1269734
PWD=/global/home/users/jdlara/Julia_testcodes/aggregator_model
SLURM_JOB_USER=jdlara
_LMFILES_=/global/software/sl-6.x86_64/modfiles/langs/gcc/4.8.5:/global/software/sl-6.x86_64/modfiles/gcc/4.8.5/mkl/2015.6.233:/global/software/sl-6.x86_64/modfiles/langs/julia/0.5.0
CUDA_VISIBLE_DEVICES=NoDevFiles
MODULEPATH=/global/software/sl-6.x86_64/modfiles/tools:/global/software/sl-6.x86_64/modfiles/langs:/global/software/sl-6.x86_64/modfiles/julia/0.5.0:/global/software/sl-6.x86_64/modfiles/gcc/4.8.5
LOADEDMODULES=gcc/4.8.5:mkl/2015.6.233:julia/0.5.0
SLURM_JOB_UID=42745
SLURM_NODEID=0
SLURM_SUBMIT_DIR=/global/home/users/jdlara/Julia_testcodes/aggregator_model
SLURM_NPROCS=1
SLURM_TASK_PID=37370
LM_LICENSE_FILE=28518@lmgr0.hpcs.lbl.gov
SLURM_CPUS_ON_NODE=20
JULIA_DIR=/global/software/sl-6.x86_64/modules/langs/julia/0.5.0
ALLHANDS_BASHRC=1
HISTCONTROL=ignoredups
ENVIRONMENT=BATCH
SLURM_PROCID=0
MKL_DIR=/global/software/sl-6.x86_64/modules/langs/intel/2015.6.233/mkl
SLURM_JOB_NODELIST=n0011.savio1
SHLVL=3
HOME=/global/home/users/jdlara
SLURM_LOCALID=0
SLURM_CLUSTER_NAME=brc
SLURM_JOB_CPUS_PER_NODE=20
SLURM_SUBMIT_HOST=n0011.savio1
SLURM_GTIDS=0
SLURM_JOB_PARTITION=savio
LOGNAME=jdlara
CVS_RSH=ssh
SSH_CONNECTION=10.142.114.66 53400 10.0.0.23 22
SLURM_JOB_ACCOUNT=fc_emac
GPU_DEVICE_ORDINAL=NoDevFiles
MODULESHOME=/usr/Modules
SLURM_JOB_NUM_NODES=1
LESSOPEN=||/usr/bin/lesspipe.sh %s
INFOPATH=/global/software/sl-6.x86_64/modules/langs/gcc/4.8.5/share/info
INCLUDE=/global/software/sl-6.x86_64/modules/langs/julia/0.5.0/include:/global/software/sl-6.x86_64/modules/langs/intel/2015.6.233/mkl/include/fftw:/global/software/sl-6.x86_64/modules/langs/intel/2015.6.233/mkl/include:/global/software/sl-6.x86_64/modules/langs/gcc/4.8.5/include
G_BROKEN_FILENAMES=1
SLURM_MEM_PER_NODE=64000
BASH_FUNC_module()=() {  logger "$HOSTNAME $USER: module $*";
 eval `/usr/Modules/bin/modulecmd bash $*`
}
_=/bin/env
